p cnf 1216
-17 -381
-18 -384
-19 -387
-20 -390
-21 -393
-22 -396
-23 -399
-24 -402
-25 -405
-26 -408
-27 -411
-28 -414
-29 -417
-30 -420
-31 -423
-32 -426
-33 427
-34 428
-35 429
-36 430
-37 431
-38 432
-39 433
-40 434
-41 435
-42 436
-43 437
-44 -18
-44 -19
18 19 44
-45 -20
-45 -21
20 21 45
-46 -22
-46 -23
22 23 46
-47 -24
-47 -25
24 25 47
-48 -26
-48 -27
26 27 48
-49 -28
-49 -29
28 29 49
-50 -30
-50 -31
30 31 50
-51 -32
-51 -33
32 33 51
-52 -34
-52 -35
34 35 52
-53 -36
-53 -37
36 37 53
-54 -38
-54 -39
38 39 54
-55 -40
-55 -41
40 41 55
-56 -42
-56 -43
42 43 56
-57 44
-57 45
-44 -45 57
-58 46
-58 47
-46 -47 58
-59 48
-59 49
-48 -49 59
-60 50
-60 51
-50 -51 60
-61 52
-61 53
-52 -53 61
-62 54
-62 55
-54 -55 62
-63 57
-63 58
-57 -58 63
-64 59
-64 60
-59 -60 64
-65 61
-65 62
-61 -62 65
-66 63
-66 64
-63 -64 66
-67 56
-67 65
-56 -65 67
-68 66
-68 67
-66 -67 68
-69 -17
-69 18
17 -18 69
-70 17
-70 -18
-17 18 70
-71 -69
-71 -70
69 70 71
-72 17
-72 18
-17 -18 72
-73 -17
-73 -71
17 71 73
-74 17
-74 71
-17 -71 74
-75 -73
-75 -74
73 74 75
-76 17
-76 -71
-17 71 76
-77 -72
-77 -76
72 76 77
-78 -18
-78 19
18 -19 78
-79 18
-79 -19
-18 19 79
-80 -78
-80 -79
78 79 80
-81 18
-81 19
-18 -19 81
-82 77
-82 -80
-77 80 82
-83 -77
-83 80
77 -80 83
-84 -82
-84 -83
82 83 84
-85 -77
-85 -80
77 80 85
-86 -81
-86 -85
81 85 86
-87 -19
-87 20
19 -20 87
-88 19
-88 -20
-19 20 88
-89 -87
-89 -88
87 88 89
-90 19
-90 20
-19 -20 90
-91 86
-91 -89
-86 89 91
-92 -86
-92 89
86 -89 92
-93 -91
-93 -92
91 92 93
-94 -86
-94 -89
86 89 94
-95 -90
-95 -94
90 94 95
-96 -20
-96 21
20 -21 96
-97 20
-97 -21
-20 21 97
-98 -96
-98 -97
96 97 98
-99 20
-99 21
-20 -21 99
-100 95
-100 -98
-95 98 100
-101 -95
-101 98
95 -98 101
-102 -100
-102 -101
100 101 102
-103 -95
-103 -98
95 98 103
-104 -99
-104 -103
99 103 104
-105 -21
-105 22
21 -22 105
-106 21
-106 -22
-21 22 106
-107 -105
-107 -106
105 106 107
-108 21
-108 22
-21 -22 108
-109 104
-109 -107
-104 107 109
-110 -104
-110 107
104 -107 110
-111 -109
-111 -110
109 110 111
-112 -104
-112 -107
104 107 112
-113 -108
-113 -112
108 112 113
-114 -22
-114 23
22 -23 114
-115 22
-115 -23
-22 23 115
-116 -114
-116 -115
114 115 116
-117 22
-117 23
-22 -23 117
-118 113
-118 -116
-113 116 118
-119 -113
-119 116
113 -116 119
-120 -118
-120 -119
118 119 120
-121 -113
-121 -116
113 116 121
-122 -117
-122 -121
117 121 122
-123 -23
-123 24
23 -24 123
-124 23
-124 -24
-23 24 124
-125 -123
-125 -124
123 124 125
-126 23
-126 24
-23 -24 126
-127 122
-127 -125
-122 125 127
-128 -122
-128 125
122 -125 128
-129 -127
-129 -128
127 128 129
-130 -122
-130 -125
122 125 130
-131 -126
-131 -130
126 130 131
-132 -24
-132 25
24 -25 132
-133 24
-133 -25
-24 25 133
-134 -132
-134 -133
132 133 134
-135 24
-135 25
-24 -25 135
-136 131
-136 -134
-131 134 136
-137 -131
-137 134
131 -134 137
-138 -136
-138 -137
136 137 138
-139 -131
-139 -134
131 134 139
-140 -135
-140 -139
135 139 140
-141 -25
-141 26
25 -26 141
-142 25
-142 -26
-25 26 142
-143 -141
-143 -142
141 142 143
-144 25
-144 26
-25 -26 144
-145 140
-145 -143
-140 143 145
-146 -140
-146 143
140 -143 146
-147 -145
-147 -146
145 146 147
-148 -140
-148 -143
140 143 148
-149 -144
-149 -148
144 148 149
-150 -26
-150 27
26 -27 150
-151 26
-151 -27
-26 27 151
-152 -150
-152 -151
150 151 152
-153 26
-153 27
-26 -27 153
-154 149
-154 -152
-149 152 154
-155 -149
-155 152
149 -152 155
-156 -154
-156 -155
154 155 156
-157 -149
-157 -152
149 152 157
-158 -153
-158 -157
153 157 158
-159 -27
-159 28
27 -28 159
-160 27
-160 -28
-27 28 160
-161 -159
-161 -160
159 160 161
-162 27
-162 28
-27 -28 162
-163 158
-163 -161
-158 161 163
-164 -158
-164 161
158 -161 164
-165 -163
-165 -164
163 164 165
-166 -158
-166 -161
158 161 166
-167 -162
-167 -166
162 166 167
-168 -28
-168 29
28 -29 168
-169 28
-169 -29
-28 29 169
-170 -168
-170 -169
168 169 170
-171 28
-171 29
-28 -29 171
-172 167
-172 -170
-167 170 172
-173 -167
-173 170
167 -170 173
-174 -172
-174 -173
172 173 174
-175 -167
-175 -170
167 170 175
-176 -171
-176 -175
171 175 176
-177 -29
-177 30
29 -30 177
-178 29
-178 -30
-29 30 178
-179 -177
-179 -178
177 178 179
-180 29
-180 30
-29 -30 180
-181 176
-181 -179
-176 179 181
-182 -176
-182 179
176 -179 182
-183 -181
-183 -182
181 182 183
-184 -176
-184 -179
176 179 184
-185 -180
-185 -184
180 184 185
-186 -30
-186 31
30 -31 186
-187 30
-187 -31
-30 31 187
-188 -186
-188 -187
186 187 188
-189 30
-189 31
-30 -31 189
-190 185
-190 -188
-185 188 190
-191 -185
-191 188
185 -188 191
-192 -190
-192 -191
190 191 192
-193 -185
-193 -188
185 188 193
-194 -189
-194 -193
189 193 194
-195 -31
-195 32
31 -32 195
-196 31
-196 -32
-31 32 196
-197 -195
-197 -196
195 196 197
-198 31
-198 32
-31 -32 198
-199 194
-199 -197
-194 197 199
-200 -194
-200 197
194 -197 200
-201 -199
-201 -200
199 200 201
-202 -194
-202 -197
194 197 202
-203 -198
-203 -202
198 202 203
-204 -32
-204 33
32 -33 204
-205 32
-205 -33
-32 33 205
-206 -204
-206 -205
204 205 206
-207 32
-207 33
-32 -33 207
-208 203
-208 -206
-203 206 208
-209 -203
-209 206
203 -206 209
-210 -208
-210 -209
208 209 210
-211 -203
-211 -206
203 206 211
-212 -207
-212 -211
207 211 212
-213 -33
-213 34
33 -34 213
-214 33
-214 -34
-33 34 214
-215 -213
-215 -214
213 214 215
-216 33
-216 34
-33 -34 216
-217 212
-217 -215
-212 215 217
-218 -212
-218 215
212 -215 218
-219 -217
-219 -218
217 218 219
-220 -212
-220 -215
212 215 220
-221 -216
-221 -220
216 220 221
-222 -34
-222 35
34 -35 222
-223 34
-223 -35
-34 35 223
-224 -222
-224 -223
222 223 224
-225 34
-225 35
-34 -35 225
-226 221
-226 -224
-221 224 226
-227 -221
-227 224
221 -224 227
-228 -226
-228 -227
226 227 228
-229 -221
-229 -224
221 224 229
-230 -225
-230 -229
225 229 230
-231 -35
-231 36
35 -36 231
-232 35
-232 -36
-35 36 232
-233 -231
-233 -232
231 232 233
-234 35
-234 36
-35 -36 234
-235 230
-235 -233
-230 233 235
-236 -230
-236 233
230 -233 236
-237 -235
-237 -236
235 236 237
-238 -230
-238 -233
230 233 238
-239 -234
-239 -238
234 238 239
-240 -36
-240 37
36 -37 240
-241 36
-241 -37
-36 37 241
-242 -240
-242 -241
240 241 242
-243 36
-243 37
-36 -37 243
-244 239
-244 -242
-239 242 244
-245 -239
-245 242
239 -242 245
-246 -244
-246 -245
244 245 246
-247 -239
-247 -242
239 242 247
-248 -243
-248 -247
243 247 248
-249 -37
-249 38
37 -38 249
-250 37
-250 -38
-37 38 250
-251 -249
-251 -250
249 250 251
-252 37
-252 38
-37 -38 252
-253 248
-253 -251
-248 251 253
-254 -248
-254 251
248 -251 254
-255 -253
-255 -254
253 254 255
-256 -248
-256 -251
248 251 256
-257 -252
-257 -256
252 256 257
-258 -38
-258 39
38 -39 258
-259 38
-259 -39
-38 39 259
-260 -258
-260 -259
258 259 260
-261 38
-261 39
-38 -39 261
-262 257
-262 -260
-257 260 262
-263 -257
-263 260
257 -260 263
-264 -262
-264 -263
262 263 264
-265 -257
-265 -260
257 260 265
-266 -261
-266 -265
261 265 266
-267 -39
-267 40
39 -40 267
-268 39
-268 -40
-39 40 268
-269 -267
-269 -268
267 268 269
-270 39
-270 40
-39 -40 270
-271 266
-271 -269
-266 269 271
-272 -266
-272 269
266 -269 272
-273 -271
-273 -272
271 272 273
-274 -266
-274 -269
266 269 274
-275 -270
-275 -274
270 274 275
-276 -40
-276 41
40 -41 276
-277 40
-277 -41
-40 41 277
-278 -276
-278 -277
276 277 278
-279 40
-279 41
-40 -41 279
-280 275
-280 -278
-275 278 280
-281 -275
-281 278
275 -278 281
-282 -280
-282 -281
280 281 282
-283 -275
-283 -278
275 278 283
-284 -279
-284 -283
279 283 284
-285 -41
-285 42
41 -42 285
-286 41
-286 -42
-41 42 286
-287 -285
-287 -286
285 286 287
-288 41
-288 42
-41 -42 288
-289 284
-289 -287
-284 287 289
-290 -284
-290 287
284 -287 290
-291 -289
-291 -290
289 290 291
-292 -284
-292 -287
284 287 292
-293 -288
-293 -292
288 292 293
-294 -42
-294 43
42 -43 294
-295 42
-295 -43
-42 43 295
-296 -294
-296 -295
294 295 296
-297 42
-297 43
-42 -43 297
-298 293
-298 -296
-293 296 298
-299 -293
-299 296
293 -296 299
-300 -298
-300 -299
298 299 300
-301 -293
-301 -296
293 296 301
-302 -297
-302 -301
297 301 302
-303 17
-303 -75
-17 75 303
-304 -17
-304 19
17 -19 304
-305 -303
-305 -304
303 304 305
-306 17
-306 -84
-17 84 306
-307 -17
-307 20
17 -20 307
-308 -306
-308 -307
306 307 308
-309 17
-309 -93
-17 93 309
-310 -17
-310 21
17 -21 310
-311 -309
-311 -310
309 310 311
-312 17
-312 -102
-17 102 312
-313 -17
-313 22
17 -22 313
-314 -312
-314 -313
312 313 314
-315 17
-315 -111
-17 111 315
-316 -17
-316 23
17 -23 316
-317 -315
-317 -316
315 316 317
-318 17
-318 -120
-17 120 318
-319 -17
-319 24
17 -24 319
-320 -318
-320 -319
318 319 320
-321 17
-321 -129
-17 129 321
-322 -17
-322 25
17 -25 322
-323 -321
-323 -322
321 322 323
-324 17
-324 -138
-17 138 324
-325 -17
-325 26
17 -26 325
-326 -324
-326 -325
324 325 326
-327 17
-327 -147
-17 147 327
-328 -17
-328 27
17 -27 328
-329 -327
-329 -328
327 328 329
-330 17
-330 -156
-17 156 330
-331 -17
-331 28
17 -28 331
-332 -330
-332 -331
330 331 332
-333 17
-333 -165
-17 165 333
-334 -17
-334 29
17 -29 334
-335 -333
-335 -334
333 334 335
-336 17
-336 -174
-17 174 336
-337 -17
-337 30
17 -30 337
-338 -336
-338 -337
336 337 338
-339 17
-339 -183
-17 183 339
-340 -17
-340 31
17 -31 340
-341 -339
-341 -340
339 340 341
-342 17
-342 -192
-17 192 342
-343 -17
-343 32
17 -32 343
-344 -342
-344 -343
342 343 344
-345 17
-345 -201
-17 201 345
-346 -17
-346 33
17 -33 346
-347 -345
-347 -346
345 346 347
-348 17
-348 -210
-17 210 348
-349 -17
-349 34
17 -34 349
-350 -348
-350 -349
348 349 350
-351 17
-351 -219
-17 219 351
-352 -17
-352 35
17 -35 352
-353 -351
-353 -352
351 352 353
-354 17
-354 -228
-17 228 354
-355 -17
-355 36
17 -36 355
-356 -354
-356 -355
354 355 356
-357 17
-357 -237
-17 237 357
-358 -17
-358 37
17 -37 358
-359 -357
-359 -358
357 358 359
-360 17
-360 -246
-17 246 360
-361 -17
-361 38
17 -38 361
-362 -360
-362 -361
360 361 362
-363 17
-363 -255
-17 255 363
-364 -17
-364 39
17 -39 364
-365 -363
-365 -364
363 364 365
-366 17
-366 -264
-17 264 366
-367 -17
-367 40
17 -40 367
-368 -366
-368 -367
366 367 368
-369 17
-369 -273
-17 273 369
-370 -17
-370 41
17 -41 370
-371 -369
-371 -370
369 370 371
-372 17
-372 -282
-17 282 372
-373 -17
-373 42
17 -42 373
-374 -372
-374 -373
372 373 374
-375 17
-375 -291
-17 291 375
-376 -17
-376 43
17 -43 376
-377 -375
-377 -376
375 376 377
-378 17
-378 -300
-17 300 378
-379 1
-379 68
-1 -68 379
-380 -68
-380 69
68 -69 380
-381 -379
-381 -380
379 380 381
-382 2
-382 68
-2 -68 382
-383 -68
-383 -305
68 305 383
-384 -382
-384 -383
382 383 384
-385 3
-385 68
-3 -68 385
-386 -68
-386 -308
68 308 386
-387 -385
-387 -386
385 386 387
-388 4
-388 68
-4 -68 388
-389 -68
-389 -311
68 311 389
-390 -388
-390 -389
388 389 390
-391 5
-391 68
-5 -68 391
-392 -68
-392 -314
68 314 392
-393 -391
-393 -392
391 392 393
-394 6
-394 68
-6 -68 394
-395 -68
-395 -317
68 317 395
-396 -394
-396 -395
394 395 396
-397 7
-397 68
-7 -68 397
-398 -68
-398 -320
68 320 398
-399 -397
-399 -398
397 398 399
-400 8
-400 68
-8 -68 400
-401 -68
-401 -323
68 323 401
-402 -400
-402 -401
400 401 402
-403 9
-403 68
-9 -68 403
-404 -68
-404 -326
68 326 404
-405 -403
-405 -404
403 404 405
-406 10
-406 68
-10 -68 406
-407 -68
-407 -329
68 329 407
-408 -406
-408 -407
406 407 408
-409 11
-409 68
-11 -68 409
-410 -68
-410 -332
68 332 410
-411 -409
-411 -410
409 410 411
-412 12
-412 68
-12 -68 412
-413 -68
-413 -335
68 335 413
-414 -412
-414 -413
412 413 414
-415 13
-415 68
-13 -68 415
-416 -68
-416 -338
68 338 416
-417 -415
-417 -416
415 416 417
-418 14
-418 68
-14 -68 418
-419 -68
-419 -341
68 341 419
-420 -418
-420 -419
418 419 420
-421 15
-421 68
-15 -68 421
-422 -68
-422 -344
68 344 422
-423 -421
-423 -422
421 422 423
-424 16
-424 68
-16 -68 424
-425 -68
-425 -347
68 347 425
-426 -424
-426 -425
424 425 426
-427 -68
-427 -350
68 350 427
-428 -68
-428 -353
68 353 428
-429 -68
-429 -356
68 356 429
-430 -68
-430 -359
68 359 430
-431 -68
-431 -362
68 362 431
-432 -68
-432 -365
68 365 432
-433 -68
-433 -368
68 368 433
-434 -68
-434 -371
68 371 434
-435 -68
-435 -374
68 374 435
-436 -68
-436 -377
68 377 436
-437 -68
-437 378
68 -378 437
-438 -43
-438 302
43 -302 438
-439 17
-439 -438
-17 438 439
439
